
Gurobi 9.0.1 (linux64) logging started Fri May  1 00:42:25 2020

Gurobi Optimizer version 9.0.1 build v9.0.1rc0 (linux64)
Optimize a model with 1024 rows, 842 columns and 4020 nonzeros
Model fingerprint: 0xcef84583
Variable types: 0 continuous, 842 integer (810 binary)
Coefficient statistics:
  Matrix range     [1e+00, 8e+00]
  Objective range  [1e+00, 1e+02]
  Bounds range     [1e+00, 1e+00]
  RHS range        [1e+00, 9e+00]

User MIP start produced solution with objective 571 (0.00s)
Loaded user MIP start with objective 571

Presolve removed 140 rows and 156 columns
Presolve time: 0.02s
Presolved: 884 rows, 686 columns, 3552 nonzeros
Variable types: 0 continuous, 686 integer (658 binary)

Root relaxation: objective 4.127500e+02, 883 iterations, 0.04 seconds

    Nodes    |    Current Node    |     Objective Bounds      |     Work
 Expl Unexpl |  Obj  Depth IntInf | Incumbent    BestBd   Gap | It/Node Time

     0     0  412.75000    0   26  571.00000  412.75000  27.7%     -    0s
     0     0  536.00000    0   58  571.00000  536.00000  6.13%     -    0s
     0     0  536.00000    0   57  571.00000  536.00000  6.13%     -    0s
     0     0  536.75000    0   85  571.00000  536.75000  6.00%     -    0s
     0     0  536.75000    0   84  571.00000  536.75000  6.00%     -    0s
     0     0  541.75000    0   98  571.00000  541.75000  5.12%     -    0s
     0     0  541.75000    0   98  571.00000  541.75000  5.12%     -    0s
     0     0  541.75000    0  101  571.00000  541.75000  5.12%     -    0s
     0     0  541.75000    0  101  571.00000  541.75000  5.12%     -    0s
     0     0  541.75000    0   53  571.00000  541.75000  5.12%     -    0s
     0     0  541.75000    0   52  571.00000  541.75000  5.12%     -    0s
     0     0  541.75000    0   88  571.00000  541.75000  5.12%     -    0s
     0     0  541.75000    0   91  571.00000  541.75000  5.12%     -    0s
     0     0  541.75000    0   42  571.00000  541.75000  5.12%     -    0s
     0     0  541.75000    0   56  571.00000  541.75000  5.12%     -    0s
     0     0  541.75000    0   57  571.00000  541.75000  5.12%     -    0s
     0     0  541.75000    0   57  571.00000  541.75000  5.12%     -    0s
     0     2  541.75000    0   57  571.00000  541.75000  5.12%     -    0s
*  127   103              72     570.0000000  542.25000  4.87%  61.8    1s
H  136    80                     566.0000000  542.75000  4.11%  67.8    1s
H  163    93                     563.0000000  542.75000  3.60%  69.9    1s
H  183   105                     561.0000000  542.75000  3.25%  64.8    1s
H  244    56                     555.0000000  544.00000  1.98%  75.7    1s
H  329    79                     554.0000000  546.45833  1.36%  79.7    2s
   518   155  552.91282   29  364  554.00000  547.32955  1.20%   102    5s
   545   168  550.88014   26  239  554.00000  547.32955  1.20%   126   10s
   666   209  552.36312   23  203  554.00000  548.14161  1.06%   170   15s
   882   218  549.65473   24  254  554.00000  548.79446  0.94%   185   20s
  1033   230  551.47216   31  273  554.00000  548.96099  0.91%   203   25s
  1290   289  552.04782   22  286  554.00000  549.41928  0.83%   203   30s
  1430   319  552.52325   32  158  554.00000  549.59423  0.80%   218   35s
H 1491   274                     553.0000000  549.61387  0.61%   217   36s
  1594   299  550.90146   27  203  553.00000  549.70782  0.60%   220   40s
  1728   305  550.76520   23  349  553.00000  549.86789  0.57%   228   45s
  1868   308  550.37208   29  331  553.00000  549.92534  0.56%   232   51s
  1966   308     cutoff   26       553.00000  549.98127  0.55%   238   55s
  2154   308  550.49372   27  229  553.00000  550.14156  0.52%   241   60s
  2336   306  551.58053   26  246  553.00000  550.27260  0.49%   242   65s
  2532   292  551.81116   29  308  553.00000  550.46515  0.46%   243   70s
  2728   272  550.80883   23  248  553.00000  550.64194  0.43%   243   75s
  2953   229  551.86647   24  175  553.00000  550.87422  0.38%   242   80s
  3140   174  551.49454   20  387  553.00000  551.09357  0.34%   241   85s
  3366    90  551.75950   21  353  553.00000  551.41938  0.29%   239   90s

Cutting planes:
  Learned: 3
  Gomory: 8
  Cover: 17
  Implied bound: 57
  Projected implied bound: 1
  Clique: 9
  MIR: 2
  StrongCG: 1
  Flow cover: 117
  Inf proof: 39
  Zero half: 9
  RLT: 165
  Relax-and-lift: 8

Explored 3492 nodes (826238 simplex iterations) in 91.59 seconds
Thread count was 1 (of 40 available processors)

Solution count 8: 553 554 555 ... 571

Optimal solution found (tolerance 1.00e-04)
Best objective 5.530000000000e+02, best bound 5.530000000000e+02, gap 0.0000%

User-callback calls 18611, time in user-callback 0.01 sec
